p cnf 386 460
-2 -8 15 21 22 0
-2 -8 15 21 -22 0
-2 -8 15 -21 23 0
-2 -8 15 -21 -23 0
12 -15 -6 24 25 0
12 -15 -6 24 -25 0
12 -15 -6 -24 26 0
12 -15 -6 -24 -26 0
6 2 -3 27 28 0
6 2 -3 27 -28 0
6 2 -3 -27 29 0
6 2 -3 -27 -29 0
-7 19 20 30 31 0
-7 19 20 30 -31 0
-7 19 20 -30 32 0
-7 19 20 -30 -32 0
-16 -9 14 33 34 0
-16 -9 14 33 -34 0
-16 -9 14 -33 35 0
-16 -9 14 -33 -35 0
8 -17 -14 36 37 0
8 -17 -14 36 -37 0
8 -17 -14 -36 38 0
8 -17 -14 -36 -38 0
-8 -5 13 39 40 0
-8 -5 13 39 -40 0
-8 -5 13 -39 41 0
-8 -5 13 -39 -41 0
-19 2 12 42 43 0
-19 2 12 42 -43 0
-19 2 12 -42 44 0
-19 2 12 -42 -44 0
-6 5 1 45 46 0
-6 5 1 45 -46 0
-6 5 1 -45 47 0
-6 5 1 -45 -47 0
-12 15 20 48 49 0
-12 15 20 48 -49 0
-12 15 20 -48 50 0
-12 15 20 -48 -50 0
19 5 20 51 52 0
19 5 20 51 -52 0
19 5 20 -51 53 0
19 5 20 -51 -53 0
9 8 -15 54 55 0
9 8 -15 54 -55 0
9 8 -15 -54 56 0
9 8 -15 -54 -56 0
11 -19 16 57 58 0
11 -19 16 57 -58 0
11 -19 16 -57 59 0
11 -19 16 -57 -59 0
-4 -7 -5 60 61 0
-4 -7 -5 60 -61 0
-4 -7 -5 -60 62 0
-4 -7 -5 -60 -62 0
12 -7 -11 63 64 0
12 -7 -11 63 -64 0
12 -7 -11 -63 65 0
12 -7 -11 -63 -65 0
2 1 17 66 67 0
2 1 17 66 -67 0
2 1 17 -66 68 0
2 1 17 -66 -68 0
-12 8 -1 69 70 0
-12 8 -1 69 -70 0
-12 8 -1 -69 71 0
-12 8 -1 -69 -71 0
3 7 -12 72 73 0
3 7 -12 72 -73 0
3 7 -12 -72 74 0
3 7 -12 -72 -74 0
-8 7 -19 75 76 0
-8 7 -19 75 -76 0
-8 7 -19 -75 77 0
-8 7 -19 -75 -77 0
3 -18 13 78 79 0
3 -18 13 78 -79 0
3 -18 13 -78 80 0
3 -18 13 -78 -80 0
2 -14 -6 81 82 0
2 -14 -6 81 -82 0
2 -14 -6 -81 83 0
2 -14 -6 -81 -83 0
17 1 13 84 85 0
17 1 13 84 -85 0
17 1 13 -84 86 0
17 1 13 -84 -86 0
-12 -15 -19 87 88 0
-12 -15 -19 87 -88 0
-12 -15 -19 -87 89 0
-12 -15 -19 -87 -89 0
-3 -5 10 90 91 0
-3 -5 10 90 -91 0
-3 -5 10 -90 92 0
-3 -5 10 -90 -92 0
17 9 -19 93 94 0
17 9 -19 93 -94 0
17 9 -19 -93 95 0
17 9 -19 -93 -95 0
19 -12 -6 96 97 0
19 -12 -6 96 -97 0
19 -12 -6 -96 98 0
19 -12 -6 -96 -98 0
16 13 20 99 100 0
16 13 20 99 -100 0
16 13 20 -99 101 0
16 13 20 -99 -101 0
-16 12 3 102 103 0
-16 12 3 102 -103 0
-16 12 3 -102 104 0
-16 12 3 -102 -104 0
5 -10 -15 105 106 0
5 -10 -15 105 -106 0
5 -10 -15 -105 107 0
5 -10 -15 -105 -107 0
-1 -5 15 108 109 0
-1 -5 15 108 -109 0
-1 -5 15 -108 110 0
-1 -5 15 -108 -110 0
-9 5 -13 111 112 0
-9 5 -13 111 -112 0
-9 5 -13 -111 113 0
-9 5 -13 -111 -113 0
-9 -13 -12 114 115 0
-9 -13 -12 114 -115 0
-9 -13 -12 -114 116 0
-9 -13 -12 -114 -116 0
12 -5 2 117 118 0
12 -5 2 117 -118 0
12 -5 2 -117 119 0
12 -5 2 -117 -119 0
10 1 8 120 121 0
10 1 8 120 -121 0
10 1 8 -120 122 0
10 1 8 -120 -122 0
-1 -5 8 123 124 0
-1 -5 8 123 -124 0
-1 -5 8 -123 125 0
-1 -5 8 -123 -125 0
-3 -4 5 126 127 0
-3 -4 5 126 -127 0
-3 -4 5 -126 128 0
-3 -4 5 -126 -128 0
-7 5 18 129 130 0
-7 5 18 129 -130 0
-7 5 18 -129 131 0
-7 5 18 -129 -131 0
-18 -12 15 132 133 0
-18 -12 15 132 -133 0
-18 -12 15 -132 134 0
-18 -12 15 -132 -134 0
-2 -6 -9 135 136 0
-2 -6 -9 135 -136 0
-2 -6 -9 -135 137 0
-2 -6 -9 -135 -137 0
11 -16 -18 138 139 0
11 -16 -18 138 -139 0
11 -16 -18 -138 140 0
11 -16 -18 -138 -140 0
9 -14 4 141 142 0
9 -14 4 141 -142 0
9 -14 4 -141 143 0
9 -14 4 -141 -143 0
11 -15 -6 144 145 0
11 -15 -6 144 -145 0
11 -15 -6 -144 146 0
11 -15 -6 -144 -146 0
6 7 -10 147 148 0
6 7 -10 147 -148 0
6 7 -10 -147 149 0
6 7 -10 -147 -149 0
-6 -8 -1 150 151 0
-6 -8 -1 150 -151 0
-6 -8 -1 -150 152 0
-6 -8 -1 -150 -152 0
-6 -10 3 153 154 0
-6 -10 3 153 -154 0
-6 -10 3 -153 155 0
-6 -10 3 -153 -155 0
5 -11 -9 156 157 0
5 -11 -9 156 -157 0
5 -11 -9 -156 158 0
5 -11 -9 -156 -158 0
15 -19 -9 159 160 0
15 -19 -9 159 -160 0
15 -19 -9 -159 161 0
15 -19 -9 -159 -161 0
-16 -4 20 162 163 0
-16 -4 20 162 -163 0
-16 -4 20 -162 164 0
-16 -4 20 -162 -164 0
-6 20 -5 165 166 0
-6 20 -5 165 -166 0
-6 20 -5 -165 167 0
-6 20 -5 -165 -167 0
-17 8 -10 168 169 0
-17 8 -10 168 -169 0
-17 8 -10 -168 170 0
-17 8 -10 -168 -170 0
3 -14 6 171 172 0
3 -14 6 171 -172 0
3 -14 6 -171 173 0
3 -14 6 -171 -173 0
11 8 19 174 175 0
11 8 19 174 -175 0
11 8 19 -174 176 0
11 8 19 -174 -176 0
4 1 9 177 178 0
4 1 9 177 -178 0
4 1 9 -177 179 0
4 1 9 -177 -179 0
11 -13 -4 180 181 0
11 -13 -4 180 -181 0
11 -13 -4 -180 182 0
11 -13 -4 -180 -182 0
20 -8 2 183 184 0
20 -8 2 183 -184 0
20 -8 2 -183 185 0
20 -8 2 -183 -185 0
-8 13 2 186 187 0
-8 13 2 186 -187 0
-8 13 2 -186 188 0
-8 13 2 -186 -188 0
-10 -8 -12 189 190 0
-10 -8 -12 189 -190 0
-10 -8 -12 -189 191 0
-10 -8 -12 -189 -191 0
-13 1 19 192 193 0
-13 1 19 192 -193 0
-13 1 19 -192 194 0
-13 1 19 -192 -194 0
3 2 13 195 196 0
3 2 13 195 -196 0
3 2 13 -195 197 0
3 2 13 -195 -197 0
9 14 -11 198 199 0
9 14 -11 198 -199 0
9 14 -11 -198 200 0
9 14 -11 -198 -200 0
-17 16 -9 201 202 0
-17 16 -9 201 -202 0
-17 16 -9 -201 203 0
-17 16 -9 -201 -203 0
-7 18 10 204 205 0
-7 18 10 204 -205 0
-7 18 10 -204 206 0
-7 18 10 -204 -206 0
20 -9 -15 207 208 0
20 -9 -15 207 -208 0
20 -9 -15 -207 209 0
20 -9 -15 -207 -209 0
-10 -7 -11 210 211 0
-10 -7 -11 210 -211 0
-10 -7 -11 -210 212 0
-10 -7 -11 -210 -212 0
-9 -6 10 213 214 0
-9 -6 10 213 -214 0
-9 -6 10 -213 215 0
-9 -6 10 -213 -215 0
8 17 -15 216 217 0
8 17 -15 216 -217 0
8 17 -15 -216 218 0
8 17 -15 -216 -218 0
-13 20 3 219 220 0
-13 20 3 219 -220 0
-13 20 3 -219 221 0
-13 20 3 -219 -221 0
-11 -18 -19 222 223 0
-11 -18 -19 222 -223 0
-11 -18 -19 -222 224 0
-11 -18 -19 -222 -224 0
-9 -4 -3 225 226 0
-9 -4 -3 225 -226 0
-9 -4 -3 -225 227 0
-9 -4 -3 -225 -227 0
19 9 3 228 229 0
19 9 3 228 -229 0
19 9 3 -228 230 0
19 9 3 -228 -230 0
14 -9 19 231 232 0
14 -9 19 231 -232 0
14 -9 19 -231 233 0
14 -9 19 -231 -233 0
-1 8 3 234 235 0
-1 8 3 234 -235 0
-1 8 3 -234 236 0
-1 8 3 -234 -236 0
10 7 5 237 238 0
10 7 5 237 -238 0
10 7 5 -237 239 0
10 7 5 -237 -239 0
-18 5 -3 240 241 0
-18 5 -3 240 -241 0
-18 5 -3 -240 242 0
-18 5 -3 -240 -242 0
15 -13 2 243 244 0
15 -13 2 243 -244 0
15 -13 2 -243 245 0
15 -13 2 -243 -245 0
16 -2 3 246 247 0
16 -2 3 246 -247 0
16 -2 3 -246 248 0
16 -2 3 -246 -248 0
-4 -6 -3 249 250 0
-4 -6 -3 249 -250 0
-4 -6 -3 -249 251 0
-4 -6 -3 -249 -251 0
-20 -17 -1 252 253 0
-20 -17 -1 252 -253 0
-20 -17 -1 -252 254 0
-20 -17 -1 -252 -254 0
5 -20 14 255 256 0
5 -20 14 255 -256 0
5 -20 14 -255 257 0
5 -20 14 -255 -257 0
1 11 -14 258 259 0
1 11 -14 258 -259 0
1 11 -14 -258 260 0
1 11 -14 -258 -260 0
-9 -10 -12 261 262 0
-9 -10 -12 261 -262 0
-9 -10 -12 -261 263 0
-9 -10 -12 -261 -263 0
16 -19 18 264 265 0
16 -19 18 264 -265 0
16 -19 18 -264 266 0
16 -19 18 -264 -266 0
8 7 9 267 268 0
8 7 9 267 -268 0
8 7 9 -267 269 0
8 7 9 -267 -269 0
-12 4 20 270 271 0
-12 4 20 270 -271 0
-12 4 20 -270 272 0
-12 4 20 -270 -272 0
-1 4 18 273 274 0
-1 4 18 273 -274 0
-1 4 18 -273 275 0
-1 4 18 -273 -275 0
10 17 13 276 277 0
10 17 13 276 -277 0
10 17 13 -276 278 0
10 17 13 -276 -278 0
-16 -4 13 279 280 0
-16 -4 13 279 -280 0
-16 -4 13 -279 281 0
-16 -4 13 -279 -281 0
20 2 -11 282 283 0
20 2 -11 282 -283 0
20 2 -11 -282 284 0
20 2 -11 -282 -284 0
-20 -9 17 285 286 0
-20 -9 17 285 -286 0
-20 -9 17 -285 287 0
-20 -9 17 -285 -287 0
-20 14 3 288 289 0
-20 14 3 288 -289 0
-20 14 3 -288 290 0
-20 14 3 -288 -290 0
4 19 5 291 292 0
4 19 5 291 -292 0
4 19 5 -291 293 0
4 19 5 -291 -293 0
294 295 297 301 309 0
294 295 297 301 -309 0
294 295 297 -301 310 0
294 295 297 -301 -310 0
294 295 -297 302 311 0
294 295 -297 302 -311 0
294 295 -297 -302 312 0
294 295 -297 -302 -312 0
294 -295 298 303 313 0
294 -295 298 303 -313 0
294 -295 298 -303 314 0
294 -295 298 -303 -314 0
294 -295 -298 304 315 0
294 -295 -298 304 -315 0
294 -295 -298 -304 316 0
294 -295 -298 -304 -316 0
-294 296 299 305 317 0
-294 296 299 305 -317 0
-294 296 299 -305 318 0
-294 296 299 -305 -318 0
-294 296 -299 306 319 0
-294 296 -299 306 -319 0
-294 296 -299 -306 320 0
-294 296 -299 -306 -320 0
-294 -296 300 307 321 0
-294 -296 300 307 -321 0
-294 -296 300 -307 322 0
-294 -296 300 -307 -322 0
-294 -296 -300 308 323 0
-294 -296 -300 308 -323 0
-294 -296 -300 -308 324 0
-294 -296 -300 -308 -324 0
325 326 328 332 340 0
325 326 328 332 -340 0
325 326 328 -332 341 0
325 326 328 -332 -341 0
325 326 -328 333 342 0
325 326 -328 333 -342 0
325 326 -328 -333 343 0
325 326 -328 -333 -343 0
325 -326 329 334 344 0
325 -326 329 334 -344 0
325 -326 329 -334 345 0
325 -326 329 -334 -345 0
325 -326 -329 335 346 0
325 -326 -329 335 -346 0
325 -326 -329 -335 347 0
325 -326 -329 -335 -347 0
-325 327 330 336 348 0
-325 327 330 336 -348 0
-325 327 330 -336 349 0
-325 327 330 -336 -349 0
-325 327 -330 337 350 0
-325 327 -330 337 -350 0
-325 327 -330 -337 351 0
-325 327 -330 -337 -351 0
-325 -327 331 338 352 0
-325 -327 331 338 -352 0
-325 -327 331 -338 353 0
-325 -327 331 -338 -353 0
-325 -327 -331 339 354 0
-325 -327 -331 339 -354 0
-325 -327 -331 -339 355 0
-325 -327 -331 -339 -355 0
356 357 359 363 371 0
356 357 359 363 -371 0
356 357 359 -363 372 0
356 357 359 -363 -372 0
356 357 -359 364 373 0
356 357 -359 364 -373 0
356 357 -359 -364 374 0
356 357 -359 -364 -374 0
356 -357 360 365 375 0
356 -357 360 365 -375 0
356 -357 360 -365 376 0
356 -357 360 -365 -376 0
356 -357 -360 366 377 0
356 -357 -360 366 -377 0
356 -357 -360 -366 378 0
356 -357 -360 -366 -378 0
-356 358 361 367 379 0
-356 358 361 367 -379 0
-356 358 361 -367 380 0
-356 358 361 -367 -380 0
-356 358 -361 368 381 0
-356 358 -361 368 -381 0
-356 358 -361 -368 382 0
-356 358 -361 -368 -382 0
-356 -358 362 369 383 0
-356 -358 362 369 -383 0
-356 -358 362 -369 384 0
-356 -358 362 -369 -384 0
-356 -358 -362 370 385 0
-356 -358 -362 370 -385 0
-356 -358 -362 -370 386 0
-356 -358 -362 -370 -386 0

